(set-logic QF_LRA)
(declare-fun X0 () Real )
(declare-fun Y0 () Real )
(declare-fun X1 () Real )
(declare-fun Y1 () Real )
(declare-fun X2 () Real )
(declare-fun Y2 () Real )
(declare-fun X3 () Real )
(declare-fun Y3 () Real )
(declare-fun X4 () Real )
(declare-fun Y4 () Real )
(declare-fun X5 () Real )
(declare-fun Y5 () Real )
(declare-fun Z () Real )
(declare-fun k () Real )
(assert (let
(( $goal (>= Z k) ))
(let
((
$phi ( and 
( or ( <= ( + X0 35 ) X1 )  ( <= ( + X1 75 ) X0 )  ( <= ( + Y0 23 ) Y1 )  ( <= ( + Y1 78 ) Y0 )  )
( or ( <= ( + X0 35 ) X2 )  ( <= ( + X2 95 ) X0 )  ( <= ( + Y0 23 ) Y2 )  ( <= ( + Y2 21 ) Y0 )  )
( or ( <= ( + X0 35 ) X3 )  ( <= ( + X3 64 ) X0 )  ( <= ( + Y0 23 ) Y3 )  ( <= ( + Y3 19 ) Y0 )  )
( or ( <= ( + X0 35 ) X4 )  ( <= ( + X4 3 ) X0 )  ( <= ( + Y0 23 ) Y4 )  ( <= ( + Y4 9 ) Y0 )  )
( or ( <= ( + X0 35 ) X5 )  ( <= ( + X5 65 ) X0 )  ( <= ( + Y0 23 ) Y5 )  ( <= ( + Y5 72 ) Y0 )  )
( or ( <= ( + X1 75 ) X2 )  ( <= ( + X2 95 ) X1 )  ( <= ( + Y1 78 ) Y2 )  ( <= ( + Y2 21 ) Y1 )  )
( or ( <= ( + X1 75 ) X3 )  ( <= ( + X3 64 ) X1 )  ( <= ( + Y1 78 ) Y3 )  ( <= ( + Y3 19 ) Y1 )  )
( or ( <= ( + X1 75 ) X4 )  ( <= ( + X4 3 ) X1 )  ( <= ( + Y1 78 ) Y4 )  ( <= ( + Y4 9 ) Y1 )  )
( or ( <= ( + X1 75 ) X5 )  ( <= ( + X5 65 ) X1 )  ( <= ( + Y1 78 ) Y5 )  ( <= ( + Y5 72 ) Y1 )  )
( or ( <= ( + X2 95 ) X3 )  ( <= ( + X3 64 ) X2 )  ( <= ( + Y2 21 ) Y3 )  ( <= ( + Y3 19 ) Y2 )  )
( or ( <= ( + X2 95 ) X4 )  ( <= ( + X4 3 ) X2 )  ( <= ( + Y2 21 ) Y4 )  ( <= ( + Y4 9 ) Y2 )  )
( or ( <= ( + X2 95 ) X5 )  ( <= ( + X5 65 ) X2 )  ( <= ( + Y2 21 ) Y5 )  ( <= ( + Y5 72 ) Y2 )  )
( or ( <= ( + X3 64 ) X4 )  ( <= ( + X4 3 ) X3 )  ( <= ( + Y3 19 ) Y4 )  ( <= ( + Y4 9 ) Y3 )  )
( or ( <= ( + X3 64 ) X5 )  ( <= ( + X5 65 ) X3 )  ( <= ( + Y3 19 ) Y5 )  ( <= ( + Y5 72 ) Y3 )  )
( or ( <= ( + X4 3 ) X5 )  ( <= ( + X5 65 ) X4 )  ( <= ( + Y4 9 ) Y5 )  ( <= ( + Y5 72 ) Y4 )  )
( >= X0 0)
( <= ( + X0 35) Z)
( >= Y0 0)
( <= ( + Y0 23 ) 100)
( >= X1 0)
( <= ( + X1 75) Z)
( >= Y1 0)
( <= ( + Y1 78 ) 100)
( >= X2 0)
( <= ( + X2 95) Z)
( >= Y2 0)
( <= ( + Y2 21 ) 100)
( >= X3 0)
( <= ( + X3 64) Z)
( >= Y3 0)
( <= ( + Y3 19 ) 100)
( >= X4 0)
( <= ( + X4 3) Z)
( >= Y4 0)
( <= ( + Y4 9 ) 100)
( >= X5 0)
( <= ( + X5 65) Z)
( >= Y5 0)
( <= ( + Y5 72 ) 100)
) )
)(=> $phi $goal))))